p td 200 600
0 1
0 199
0 2
0 198
0 3
0 197
1 3
1 199
1 4
1 101
1 110
2 3
2 4
2 14
3 4
3 5
3 6
4 5
4 6
4 7
4 70
5 6
5 7
5 8
6 7
6 8
6 9
7 9
7 37
7 27
8 9
8 10
8 11
9 10
9 11
9 12
10 11
10 12
10 13
11 12
11 13
11 14
12 13
12 14
12 15
13 14
13 15
13 16
13 139
14 15
14 16
14 17
15 16
15 17
15 18
16 17
16 18
16 174
16 167
17 18
17 19
17 20
18 19
18 20
18 21
19 20
19 21
19 22
19 117
20 21
20 22
20 23
21 22
21 23
21 24
22 23
22 25
22 48
23 24
23 25
23 26
23 129
24 25
24 27
24 69
25 26
25 27
25 28
25 113
26 27
26 28
26 29
26 196
27 28
27 30
27 145
28 29
28 30
28 31
29 30
29 31
29 32
30 31
30 32
30 33
31 32
31 33
31 34
32 33
32 34
32 35
33 34
33 35
33 36
34 35
34 36
34 37
35 38
35 128
35 172
36 37
36 38
36 39
37 38
37 39
37 40
38 40
38 41
38 47
39 41
39 42
39 137
40 41
40 42
40 43
41 42
41 43
41 44
42 43
42 44
42 45
43 44
43 45
43 46
43 132
44 45
44 46
44 47
45 46
45 47
45 48
46 47
46 48
46 49
47 48
47 49
47 50
47 185
48 50
48 61
48 185
49 50
49 51
49 52
50 51
50 52
50 53
51 52
51 53
51 54
51 192
52 53
52 54
52 55
53 54
53 55
53 56
54 55
54 56
54 185
55 56
55 57
55 58
55 94
55 128
56 57
56 58
56 59
57 58
57 59
57 60
58 59
58 61
58 108
59 60
59 61
59 62
60 61
60 62
60 63
61 62
61 63
61 64
62 63
62 64
62 65
63 64
63 65
63 66
63 181
64 65
64 66
64 67
65 66
65 67
65 98
66 67
66 69
66 99
67 68
67 69
67 70
67 155
68 69
68 70
68 71
69 70
69 71
69 109
70 71
70 72
71 72
71 73
71 74
72 73
72 74
72 75
73 74
73 75
73 76
74 75
74 76
74 77
75 76
75 78
75 172
75 99
76 77
76 78
76 79
77 78
77 79
77 80
78 79
78 80
78 81
79 80
79 81
79 82
80 82
80 83
80 105
80 198
81 83
81 84
81 108
82 83
82 84
82 85
83 84
83 85
83 86
83 189
84 85
84 87
84 118
85 86
85 88
85 94
85 193
86 87
86 88
86 89
87 88
87 89
87 90
88 89
88 90
88 91
89 90
89 91
89 92
90 91
90 92
90 93
91 92
91 93
91 94
92 93
92 94
92 95
93 94
93 95
93 96
94 96
94 97
95 96
95 97
95 121
96 97
96 98
96 99
97 98
97 100
97 108
98 99
98 100
98 101
99 100
99 101
100 101
100 102
100 103
101 102
101 103
101 104
102 104
102 105
102 120
103 104
103 105
103 106
104 105
104 106
104 107
105 106
105 107
105 108
106 107
106 108
106 109
107 108
107 109
107 110
108 109
108 110
108 111
109 110
109 111
109 112
110 111
110 112
111 112
111 113
111 114
112 113
112 115
112 122
113 116
113 149
114 115
114 116
114 117
115 116
115 117
115 118
116 117
116 118
116 119
117 118
117 119
118 119
118 120
118 121
118 131
119 120
119 121
119 122
120 121
120 122
120 123
120 199
121 122
121 123
121 124
122 123
122 124
122 125
123 124
123 125
123 126
124 125
124 126
124 127
124 144
125 126
125 127
125 128
126 127
126 128
126 129
127 128
127 129
127 130
128 129
128 131
129 130
129 131
130 133
130 143
130 196
131 132
131 133
132 134
132 135
133 134
133 135
133 136
134 135
134 136
134 137
135 136
135 137
135 138
136 137
136 138
136 139
137 138
137 139
137 140
138 139
138 140
138 141
139 141
139 142
140 141
140 142
140 143
141 142
141 143
141 144
142 143
142 144
142 145
143 144
143 145
143 146
144 145
144 147
145 146
145 147
145 148
146 147
146 148
146 149
147 148
147 149
147 150
148 149
148 150
148 151
149 150
149 151
149 152
149 160
150 151
150 152
150 153
151 152
151 153
151 154
152 154
152 155
152 188
153 154
153 155
153 156
154 155
154 156
154 157
155 157
155 181
156 157
156 158
156 159
157 158
157 159
157 160
158 159
158 160
158 161
159 160
159 161
159 162
160 162
160 163
161 162
161 163
161 164
162 164
162 165
162 172
162 179
163 164
163 165
163 166
164 165
164 166
164 167
165 166
165 167
165 168
166 167
166 168
166 169
167 168
167 169
167 170
168 169
168 170
168 171
169 170
169 171
169 172
170 171
170 172
170 173
171 172
171 173
171 174
172 173
172 174
172 175
173 174
173 175
173 176
174 175
174 177
175 176
175 177
175 178
176 177
176 178
176 179
177 178
177 179
177 180
178 179
178 180
178 181
179 181
179 182
180 181
180 182
180 183
181 182
181 183
182 183
182 184
182 185
183 184
183 185
183 186
184 185
184 187
184 191
185 187
185 188
186 187
186 188
186 189
187 188
187 189
187 190
188 189
188 190
188 191
189 190
189 191
190 191
190 192
190 193
191 192
191 193
191 194
192 194
192 195
193 194
193 196
194 195
194 196
194 197
195 196
195 197
195 198
196 197
196 199
197 198
197 199
198 199
